(declare-const ad1 Bool)
(declare-const ae1 Bool)
(declare-const af1 Bool)
(declare-const bd1 Bool)
(declare-const be1 Bool)
(declare-const bf1 Bool)
(declare-const cd1 Bool)
(declare-const ce1 Bool)
(declare-const cf1 Bool)
(declare-const ad2 Bool)
(declare-const ae2 Bool)
(declare-const af2 Bool)
(declare-const bd2 Bool)
(declare-const be2 Bool)
(declare-const bf2 Bool)
(declare-const cd2 Bool)
(declare-const ce2 Bool)
(declare-const cf2 Bool)
(push)
(assert
  (and
    (or ad1 ad2)
    (or ae1 ae2)
    (or af1 af2)
    (or bd1 bd2)
    (or be1 be2)
    (or bf1 bf2)
    (or cd1 cd2)
    (or ce1 ce2)
    (or cf1 cf2)
    (or (not ad1) (not ad2))
    (or (not ae1) (not ae2))
    (or (not af1) (not af2))
    (or (not bd1) (not bd2))
    (or (not be1) (not be2))
    (or (not bf1) (not bf2))
    (or (not cd1) (not cd2))
    (or (not ce1) (not ce2))
    (or (not cf1) (not cf2))))
(check-sat)
(get-model)
(pop)